
(set-logic HORN)
(define-fun Z_43 () Int 0)
(define-fun S_15 ((x Int)) Int (+ x 1))
(declare-datatypes ((Bool_8 0)) (((false_8) (true_8))))
(declare-fun diseqBool_3 (Bool_8 Bool_8) Bool)
(declare-fun isfalse_3 (Bool_8) Bool)
(declare-fun istrue_3 (Bool_8) Bool)
(assert (isfalse_3 false_8))
(assert (istrue_3 true_8))
(assert (diseqBool_3 false_8 true_8))
(assert (diseqBool_3 true_8 false_8))
(declare-fun and_8 (Bool_8 Bool_8 Bool_8) Bool)
(declare-fun or_8 (Bool_8 Bool_8 Bool_8) Bool)
(declare-fun hence_8 (Bool_8 Bool_8 Bool_8) Bool)
(declare-fun not_8 (Bool_8 Bool_8) Bool)
(assert (and_8 false_8 false_8 false_8))
(assert (and_8 false_8 true_8 false_8))
(assert (and_8 false_8 false_8 true_8))
(assert (and_8 true_8 true_8 true_8))
(assert (or_8 false_8 false_8 false_8))
(assert (or_8 true_8 true_8 false_8))
(assert (or_8 true_8 false_8 true_8))
(assert (or_8 true_8 true_8 true_8))
(assert (hence_8 true_8 false_8 false_8))
(assert (hence_8 false_8 true_8 false_8))
(assert (hence_8 true_8 false_8 true_8))
(assert (hence_8 true_8 true_8 true_8))
(assert (not_8 true_8 false_8))
(assert (not_8 false_8 true_8))
(declare-fun diseqInt (Int Int) Bool)
(declare-fun projS_15 (Int Int) Bool)
(declare-fun isZ_15 (Int) Bool)
(declare-fun isS_15 (Int) Bool)
(assert (forall ((x_490 Int))
	(projS_15 x_490 (S_15 x_490))))
(assert (isZ_15 Z_43))
(assert (forall ((x_492 Int))
	(isS_15 (S_15 x_492))))
(assert (forall ((x_493 Int))
	(diseqInt Z_43 (S_15 x_493))))
(assert (forall ((x_494 Int))
	(diseqInt (S_15 x_494) Z_43)))
(assert (forall ((x_495 Int) (x_496 Int))
	(=> (diseqInt x_495 x_496) (diseqInt (S_15 x_495) (S_15 x_496)))))
(declare-datatypes ((list_9 0)) (((nil_9) (cons_9 (head_18 Int) (tail_18 list_9)))))
(declare-fun diseqlist_9 (list_9 list_9) Bool)
(declare-fun head_19 (Int list_9) Bool)
(declare-fun tail_19 (list_9 list_9) Bool)
(declare-fun isnil_9 (list_9) Bool)
(declare-fun iscons_9 (list_9) Bool)
(assert (forall ((x_498 Int) (x_499 list_9))
	(head_19 x_498 (cons_9 x_498 x_499))))
(assert (forall ((x_498 Int) (x_499 list_9))
	(tail_19 x_499 (cons_9 x_498 x_499))))
(assert (isnil_9 nil_9))
(assert (forall ((x_501 Int) (x_502 list_9))
	(iscons_9 (cons_9 x_501 x_502))))
(assert (forall ((x_503 Int) (x_504 list_9))
	(diseqlist_9 nil_9 (cons_9 x_503 x_504))))
(assert (forall ((x_505 Int) (x_506 list_9))
	(diseqlist_9 (cons_9 x_505 x_506) nil_9)))
(assert (forall ((x_507 Int) (x_508 list_9) (x_509 Int) (x_510 list_9))
	(=> (diseqInt x_507 x_509) (diseqlist_9 (cons_9 x_507 x_508) (cons_9 x_509 x_510)))))
(assert (forall ((x_507 Int) (x_508 list_9) (x_509 Int) (x_510 list_9))
	(=> (diseqlist_9 x_508 x_510) (diseqlist_9 (cons_9 x_507 x_508) (cons_9 x_509 x_510)))))
(declare-fun len_2 (Int list_9) Bool)
(assert (forall ((x_464 Int) (y_35 Int) (xs_14 list_9))
	(=> (len_2 x_464 xs_14) (len_2 (S_15 x_464) (cons_9 y_35 xs_14)))))
(assert (len_2 Z_43 nil_9))
(declare-fun x_456 (Bool_8 Int Int) Bool)
(assert (forall ((x_466 Bool_8) (y_37 Int) (x_458 Int))
	(=> (x_456 x_466 x_458 y_37) (x_456 x_466 (S_15 x_458) (S_15 y_37)))))
(assert (forall ((x_458 Int))
	(x_456 false_8 (S_15 x_458) Z_43)))
(assert (forall ((z_44 Int))
	(x_456 false_8 Z_43 (S_15 z_44))))
(assert (x_456 true_8 Z_43 Z_43))
(declare-fun delete_0 (list_9 Int list_9) Bool)
(assert (forall ((x_472 list_9) (z_45 Int) (xs_15 list_9) (x_459 Int))
	(=> (and (delete_0 x_472 x_459 xs_15) (x_456 true_8 x_459 z_45)) (delete_0 x_472 x_459 (cons_9 z_45 xs_15)))))
(assert (forall ((x_476 list_9) (z_45 Int) (xs_15 list_9) (x_459 Int))
	(=> (and (delete_0 x_476 x_459 xs_15) (x_456 false_8 x_459 z_45)) (delete_0 (cons_9 z_45 x_476) x_459 (cons_9 z_45 xs_15)))))
(assert (forall ((x_459 Int))
	(delete_0 nil_9 x_459 nil_9)))
(declare-fun x_460 (Bool_8 Int Int) Bool)
(assert (forall ((x_478 Bool_8) (x_462 Int) (z_46 Int))
	(=> (x_460 x_478 z_46 x_462) (x_460 x_478 (S_15 z_46) (S_15 x_462)))))
(assert (forall ((z_46 Int))
	(x_460 false_8 (S_15 z_46) Z_43)))
(assert (forall ((y_39 Int))
	(x_460 true_8 Z_43 y_39)))
(assert (forall ((x_482 list_9) (x_483 Int) (x_484 Int) (n_3 Int) (xs_16 list_9))
	(=> (and true (delete_0 x_482 n_3 xs_16) (len_2 x_483 x_482) (len_2 x_484 xs_16) (x_460 false_8 x_483 x_484)) false)))
(check-sat)
